c A SAT instance generated from a 3-CNF formula that had 32 clauses and 8 variables
p cnf 8 32
-8 -3 7 0
-8 4 7 0
-8 -5 -2 0
3 -2 -1 0
1 -8 -5 0
-1 -2 -6 0
-2 -1 7 0
6 -8 5 0
1 3 6 0
-3 2 7 0
7 -5 1 0
3 7 5 0
7 6 8 0
7 -5 -4 0
5 -4 -1 0
8 -2 6 0
-5 -8 1 0
-7 2 6 0
-5 4 7 0
-4 -6 8 0
-5 -4 -8 0
-4 -7 -1 0
3 4 -6 0
-2 4 7 0
-6 3 -4 0
2 1 -3 0
1 -5 -2 0
-6 -3 7 0
-8 -3 -7 0
-5 -4 -3 0
-4 1 8 0
-5 -1 3 0
